n = 10;
huts = array2d(1..10, 1..10, 
[
% 1 2 3 4 5 6 7 8 9 10
  0,0,0,0,1,0,0,0,0,0, % A
  0,0,0,0,1,0,0,0,1,1, % B
  1,0,0,0,0,1,0,1,1,1, % C
  0,1,0,0,0,0,1,0,0,1, % D
  0,1,0,0,0,0,0,0,1,0, % E
  0,0,0,0,0,0,0,1,0,0, % F
  0,1,0,0,0,0,0,0,0,0, % G
  0,1,0,0,0,1,0,0,0,0, % H
  0,0,0,0,0,0,0,0,0,0, % I
  0,0,0,0,0,0,0,1,0,1, % J
]);